c ====================[ Coprocessor 7.1.0                    v7.1.0-dirty ]================================
c | Norbert Manthey. The use of the tool is limited to research only!                                     |
c | Contributors:                                                                                         |
c |     Kilian Gebhard                                                                                    |
c |     Lucas Kahlert, Franziska Krüger, Aaron Stephan                                                    |
c ============================[ Problem Statistics ]=======================================================
c |                                                                                                       |
c |  Number of variables:           400                                                                  |
c |  Number of clauses:            2200                                                                   |
c |  Parse time:                   0.00 s                                                                 |
c [STAT] CP3 0.016495 s-ppTime, 0 s-ipTime, 0.0164933 s-ppwTime, 0 s-ipwTime, 9 MB, ok 0.000757 s-ohTime, 
c [STAT] CP3(2) 3206 cls, 0 learnts, -1006 rem-cls, 0 rem-learnts, 
c [STAT] UP 7e-06 s, 0 units, 0 cls, 0 lits
c [STAT] SuSi(1) 0.000511 s, 0 cls,  with 0 lits, 0 strengthed 
c [STAT] SuSi(2) 16751 subs-steps, 28667 strenght-steps, 0 increases, 0.000999s strengthening 
c [STAT] EE 0.001077 s, 0 steps 0 ee-lits 0 removedCls, 0 removedSubCls,
c [STAT] EE-gate 8.2e-05 s, 0 steps, 0.000836 extractGateTime, 
c [STAT] BVE(1) 0.0011 s, 0.000157 s spent on subsimp, 67 vars tested, 67 anticipations, 660 vars skipped, 3613 checks, 
c [STAT] BVE(2) 441 rem cls, with 1364 lits, 0 learnts rem, with 0 lits, 1447 new cls, with 5975 lits, 0 new learnts, with 0 lits, 
c [STAT] BVE(3) 30 vars eliminated, 0 units enqueued, 0 BC removed, with 0 lits, 0 blocked learnts removed, with 0 lits, 
c [STAT] BVE(4) 0 gateDefs, 0 usedGates, 0 gateSeconds, 
c [STAT] BVE(5) 30 incElims, 0 keepElims, 0 decElims, 1006 totalAdds,
c [STAT] UNHIDE 0.001873 s, 0 cls, 0 totalLits, 0 lits 
c [STAT] UNHIDE(2) 0 prSecs, 0 prSteps, 0 L1units, 0 L2units, 0 L3units, 0 L4units, 0 L5units, 
c [STAT] UNHIDE(3) 0 EE-checks, 0 EE-cands, 0 EEs 
c [STAT] XOR 0.001535s, 0.00146 parse-s, 6.3e-05 reason-s, 
c [STAT] XOR(2) 0 xors, 0 subXors, 0 resXors, 0 clauses, 0 resClauses, 0 resTauts, 0 resStrength, 5402 findChecks, 
c [STAT] XOR(3) 0 steps, 800 empties, 0 listUnits, 0 useLists, 0 xorUnits, 0 eqs, 
c [STAT] XOR(4) 3203 participating, 0.878256 ratio, 0 simDecisions, 0 xorProps, 0 clsProps, 
c [STAT] BCE 0.002299 seconds, 22678 steps, 1480 testLits, 0 remBCE, 0 BCMs, 0 BCMcands, 0 BCMlits, 
c [STAT] CLE 0 remCLE, 0 cleUnits, 
c [STAT] BCE-CLA 0 seconds, 0 steps, 0 testLits, 0 extClss, 0 extLits, 0 possibles, 
c [STAT] FM 0.005934 s, 0.000214 amo-s, 0.008871 fm-s, 0.001386 amt-s, 0 amos, 0 amts, 0 sameUnits, 0 deducedUnits, 0 propUnits, 0 cls, 0 steps, 33811 searchSteps, 0 addDups, 
c [STAT] FM(2) 0 irregulars, 0 pureAmoLits, 0 diff, 0 discards, 0 addedCs, 0 removedCs, 0 newAmos, 0 discardedNewAmos, 
c [STAT] FM(3) 0 newAmoBinCls, 0 newCls, 0 newAlos, 0 newAlks, 0 duplicates, 0 garbageCollecst, 
c [STAT] FM(4) 1.6e-05 2PrdTime, 0 2PrAmos, 0 2PrLits, 2e-06 dedAloTime, 0 dedAlos, 
c [STAT] FM(5) time: 0.004098 s,steps: 31876 cards: 0 failed: 5406 extLits: 0 redDegree: 0 probes: 6040 conflictProbes: 0 savedPreCls: 0 savedPostCls: 0 units: 14180
c [STAT] DENSE 30 gaps
c |  Simplification time:          0.02 s                                                                 |
c |                                                                                                       |
c ==============================[ Writing DIMACS ]=========================================================
c =============================[ Writing Undo Info ]=======================================================
c write undo for 257 clauses and 0 units
c preprocessed 0 seconds
c starting sparrow solver
c Instance name       :  /home/lorenz/SAT2018/s2r_bin/tmp/cp_tmpCNF_47134
c Number of variables :  370
c Number of literals  :  740
c Number of Clauses   :  3206
c MaxNumOccurences    :  77
c MaxClauseSize       :  5
c MinClauseSize       :  3
c Ratio               :  8.6649
c Parameter setting   :  5 SAT

c Sparrow 2014 Parameteres: 
c c1                  : 2.8500
c c2                  : 4
c c3                  : 75000
c smoothing prob.     : 1.000
c seed                : 0
c XOR implementation  : yes
c using:              : random clause selection
c maxTries            : 9223372036854775807
c maxFlips            : 500000000
c timeout             : 900sec
c luby restarts       : yes
c luby base           : 262144
c keep assignement    : yes
c sp sequence:        : 0.000, 0.100, 0.600, 1.000, 0.900, 0.600, 0.800, 0.600, 0.000, 
c -->Starting solver  : 

c UNKNOWN best(   4) current(   7) (4.91000        sec)
c EndStatistics:
c numFlips                      : 13722880 
c numProbWalks                  : 11598061  (84.52%) 
c gradientWalks                 : 2124819   (15.48%) 
c numSmooth                     : 0         (0.00%) 
c numWeight                     : 0         (0.00%) 
c Try CPU Time                  : 4.910   
c totalTries                    : 508      
c totalFlips                    : 500000000
c flips/sec                     : 2349072 
c Total CPU Time                : 212.850 sec
c solved 213 seconds
c parse model from /home/lorenz/SAT2018/s2r_bin/tmp/cp_model_47134
c WARNING: could not find any solution information!
c opened var map /home/lorenz/SAT2018/s2r_bin/tmp/cp_undo_47134.map for reading ... 
c use Riss 7.1
c [STAT] CP3 0.019586 s-ppTime, 0 s-ipTime, 0.0195863 s-ppwTime, 0 s-ipwTime, 9 MB, ok 0.000791 s-ohTime, 
c [STAT] CP3(2) 3163 cls, 0 learnts, -963 rem-cls, 0 rem-learnts, 
c [STAT] UP 6e-06 s, 0 units, 0 cls, 0 lits
c [STAT] SuSi(1) 0.000676 s, 0 cls,  with 0 lits, 0 strengthed 
c [STAT] SuSi(2) 15493 subs-steps, 33354 strenght-steps, 0 increases, 0.001573s strengthening 
c [STAT] EE 0.00153 s, 0 steps 0 ee-lits 0 removedCls, 0 removedSubCls,
c [STAT] EE-gate 9.9e-05 s, 0 steps, 0.001216 extractGateTime, 
c [STAT] BVE(1) 0.003607 s, 0.00238 s spent on subsimp, 57 vars tested, 57 anticipations, 679 vars skipped, 3228 checks, 
c [STAT] BVE(2) 642 rem cls, with 1962 lits, 0 learnts rem, with 0 lits, 1605 new cls, with 6593 lits, 0 new learnts, with 0 lits, 
c [STAT] BVE(3) 57 vars eliminated, 0 units enqueued, 0 BC removed, with 0 lits, 0 blocked learnts removed, with 0 lits, 
c [STAT] BVE(4) 0 gateDefs, 0 usedGates, 7.8e-05 gateSeconds, 
c [STAT] BVE(5) 53 incElims, 0 keepElims, 4 decElims, 963 totalAdds,
c [STAT] UNHIDE 0.003041 s, 0 cls, 0 totalLits, 0 lits 
c [STAT] UNHIDE(2) 0 prSecs, 0 prSteps, 0 L1units, 0 L2units, 0 L3units, 0 L4units, 0 L5units, 
c [STAT] UNHIDE(3) 0 EE-checks, 0 EE-cands, 0 EEs 
c [STAT] XOR 0.00164s, 0.001556 parse-s, 7e-05 reason-s, 
c [STAT] XOR(2) 0 xors, 0 subXors, 0 resXors, 0 clauses, 0 resClauses, 0 resTauts, 0 resStrength, 5358 findChecks, 
c [STAT] XOR(3) 0 steps, 800 empties, 0 listUnits, 0 useLists, 0 xorUnits, 0 eqs, 
c [STAT] XOR(4) 3159 participating, 0.830223 ratio, 0 simDecisions, 0 xorProps, 0 clsProps, 
c [STAT] BCE 0.001967 seconds, 22780 steps, 1372 testLits, 0 remBCE, 0 BCMs, 0 BCMcands, 0 BCMlits, 
c [STAT] CLE 0 remCLE, 0 cleUnits, 
c [STAT] BCE-CLA 0 seconds, 0 steps, 0 testLits, 0 extClss, 0 extLits, 0 possibles, 
c [STAT] FM 0.006538 s, 0.000234 amo-s, 0.012809 fm-s, 0.001356 amt-s, 0 amos, 0 amts, 0 sameUnits, 0 deducedUnits, 0 propUnits, 0 cls, 0 steps, 33305 searchSteps, 0 addDups, 
c [STAT] FM(2) 0 irregulars, 0 pureAmoLits, 0 diff, 0 discards, 0 addedCs, 0 removedCs, 0 newAmos, 0 discardedNewAmos, 
c [STAT] FM(3) 0 newAmoBinCls, 0 newCls, 0 newAlos, 0 newAlks, 0 duplicates, 0 garbageCollecst, 
c [STAT] FM(4) 4e-06 2PrdTime, 0 2PrAmos, 0 2PrLits, 3e-06 dedAloTime, 0 dedAlos, 
c [STAT] FM(5) time: 0.0047 s,steps: 31551 cards: 0 failed: 5363 extLits: 0 redDegree: 0 probes: 5952 conflictProbes: 1 savedPreCls: 0 savedPostCls: 0 units: 14074
c [STAT] DENSE 57 gaps
c Riss 7.1 used 0 seconds with exit code 10
c pp-time: 0 SLS-time: 213  CDCL-time: 0
c solved with: Riss 7.1
 c
c SparrowToRiss 2018
c Adrian Balint, Norbert Manthey
c
c undo: /home/lorenz/SAT2018/s2r_bin/tmp/cp_undo_47134 tmpCNF: /home/lorenz/SAT2018/s2r_bin/tmp/cp_tmpCNF_47134 model: /home/lorenz/SAT2018/s2r_bin/tmp/cp_model_47134 realModel: /home/lorenz/SAT2018/s2r_bin/tmp/model_47134
c preprocessed 0 seconds with exit code 0
c not solved by preprocessor -- do search
c post-process with coprocessor
c WARNING: for repeatability, setting FPU to use double precision
c =================[ riss (core) 7.1.0                    v7.1.0-dirty ]===================================
c | Norbert Manthey. The use of the tool is limited to research only!                                     |
c | Based on Minisat 2.2 and Glucose 2.1  -- thanks!                                                      |
c | Contributors:                                                                                         |
c |      Kilian Gebhardt                                                                                  |
c |      Lucas Kahlert, Franziska Krüger, Aaron Stephan                                                   |
c ============================[ Problem Statistics ]=======================================================
c |                                                                                                       |
c |  Number of variables:                400                                                              |
c |  Number of clauses:                 2200                                                              |
c |  Number of total literals:          6600                                                              |
c |  Parse time:                        0.00 s                                                            |
c |                                                                                                       |
c ========================================[ MAGIC CONSTANTS ]==============================================
c | Constants are supposed to work well together :-)                                                      |
c | however, if you find better choices, please let us known...                                           |
c |-------------------------------------------------------------------------------------------------------|
c |                                |                                |                                     |
c | - Restarts:                    | - Reduce Clause DB:            | - Minimize Asserting:               |
c |   * LBD Queue    :     50      |   * First     :   4000         |    * size <  30                     |
c |   * Trail  Queue :   5000      |   * Inc       :    300         |    * lbd  <   6                     |
c |   * K            :   0.80      |   * Special   :   1000         |                                     |
c |   * R            :   1.40      |   * Protected :  (lbd)< 30     |                                     |
c |                                |                                |                                     |
c =========================================================================================================
c =========================================================================================================
c | solve clauses:         3163  solve variables:          343                                            |
c =========================================================================================================
c ==================================[ Search Statistics (every  10000 conflicts) ]=========================
c |                                                                                                       |
c |          RESTARTS           |          ORIGINAL         |              LEARNT              | Progress |
c |       NB   Blocked  Avg Cfc |    Vars  Clauses Literals |   Red   Learnts    LBD2  Removed |          |
c =========================================================================================================
c =========================================================================================================
c Tinimt-Ratios: ratioCpW: 1.00 ,overhead/Total 0.14 0.14 
c Timing(cpu,wall, in s): total: 0.05 0.05 ,prop: 0.01 0.01 ,analysis: 0.01 0.01 ,ext.Res.: 0.00 0.00 ,reduce: 0.00 0.00 ,overhead 0.01 0.01
c PP-Timing(cpu,wall, in s): preprocessing( 1 ): 0.02 0.02 ,inprocessing (0 ): 0.00 0.00
c Trivial Polarity: True: 0  False: 0
c Learnt At Level 1: 0  Multiple: 0 Units: 0
c LAs: 0.000000 laSeconds 0 LA assigned: 0 tabus: 0, failedLas: 0, maxEvery 0, eeV: 0 eeL: 0 
c otfss: 0 (l1: 0 ),cls: 0 ,units: 0 ,binaries: 0, eagerCandidates: 0
c learning: 978 cls, 15.347648 avg. size, 10.879346 avg. LBD, 30 maxSize
c res.ext.res.: 0 rer, 0 rerSizeCands, 0 sizeReject, 0 patternReject, 0 bloomReject, 0 maxSize, 0.00 avgSize, 0.00 totalLits, 0 gates
c ER rewrite: 0 cls, 0 lits
c i.cls.strengthening: 0.00 seconds, 0 calls, 0 candidates, 0 droppedBefore, 0 shrinked, 0 shrinkedLits
c bi-asserting: 0 pre-Mini, 0 post-Mini, 0.000 rel-pre, 0.000 rel-post
c search-UHLE: 0 attempts, 0 rem-lits
c revMin: 136 tries 0 succesful 0 dropped 0 cut 0 conflicts
c decisionClauses: 0
c IntervalRestarts: 0
c partial restarts: 0 saved decisions: 0 saved propagations: 0 recursives: 0
c uhd probe: 0.000000 s, 0 L2units, 0 L3units, 0 L4units
c LCM: 0.000000 s, 0 nbLCM, 0 LCMclsAttempts, 0 nbLCMclsSuccess, 0 npConflLCMlits, 0 nbLCMlits, 0 falsified, 0 positiveDrop, 0 litsR1, 0 litsR2
c restarts              : 1 (978 conflicts in avg)
c blocked restarts      : 0 (multiple: 0) 
c last block at restart : 0
c nb ReduceDB           : 0
c nb removed Clauses    : 0
c nb learnts DL2        : 1
c nb learnts size 2     : 0
c nb learnts size 1     : 0
c conflicts             : 978            (20032 /sec)
c decisions             : 1277           (0.00 % random) (26156 /sec)
c propagations          : 67014          (1372619 /sec)
c conflict literals     : 15010          (15.97 % deleted)
c nb reduced Clauses    : 0
c Memory used           : 9.00 MB
c CPU time              : 0.048822 s
s SATISFIABLE
v 1 2 -3 4 5 -6 -7 -8 -9 10 -11 -12 13 -14 -15 16 -17 -18 -19 20 -21 -22 -23 -24 -25 -26 27 -28 29 30 31 32 33 -34 -35 36 37 -38 -39 40 -41 -42 -43 -44 45 46 -47 -48 -49 50 -51 52 53 -54 -55 -56 -57 -58 59 60 -61 -62 -63 64 65 66 67 -68 69 70 71 -72 -73 -74 75 -76 -77 78 79 -80 -81 82 -83 -84 -85 86 -87 88 89 -90 91 92 -93 -94 -95 96 97 -98 -99 100 -101 -102 103 104 105 -106 -107 -108 109 110 111 -112 -113 114 115 -116 -117 -118 -119 120 -121 122 -123 -124 125 -126 -127 -128 129 130 131 -132 133 -134 135 136 137 138 -139 140 141 -142 143 -144 145 -146 -147 -148 149 150 -151 152 -153 -154 -155 -156 -157 158 -159 -160 -161 162 163 -164 -165 -166 167 -168 -169 170 171 172 173 174 -175 -176 -177 -178 179 -180 -181 182 -183 184 -185 186 187 -188 -189 -190 -191 192 -193 194 195 -196 -197 198 199 200 -201 -202 -203 -204 205 -206 207 -208 209 -210 -211 212 213 -214 -215 216 -217 -218 -219 -220 221 -222 -223 224 -225 -226 227 -228 -229 -230 -231 -232 233 -234 -235 236 -237 -238 -239 -240 241 -242 -243 244 -245 246 -247 248 -249 -250 251 252 253 -254 255 -256 -257 -258 -259 260 -261 262 -263 264 265 266 -267 268 -269 -270 -271 -272 273 274 275 276 -277 -278 -279 280 -281 -282 283 -284 -285 286 287 -288 289 -290 -291 292 293 294 295 296 297 -298 -299 300 301 302 -303 -304 305 306 -307 -308 309 310 -311 -312 313 314 315 -316 -317 318 319 -320 321 -322 -323 -324 -325 326 -327 328 329 -330 331 332 333 334 335 336 337 338 339 340 -341 -342 343 344 345 -346 347 348 349 -350 351 -352 -353 354 355 356 -357 -358 359 -360 361 362 -363 364 -365 366 -367 368 369 370 371 -372 -373 -374 -375 376 -377 -378 379 380 381 382 383 384 -385 -386 -387 388 389 390 -391 -392 393 394 395 396 397 398 399 -400 0

